model/logs/speck32_64_10_rounds_3_active_bits.txt
 This log corresponds to differential-linear distinguisher 4.
% Generated FlatZinc statistics:
%%%mzn-stat: paths=0
%%%mzn-stat: flatIntVars=1113
%%%mzn-stat: flatFloatVars=992
%%%mzn-stat: flatIntConstraints=2355
%%%mzn-stat: flatFloatConstraints=1328
%%%mzn-stat: evaluatedReifiedConstraints=221
%%%mzn-stat: evaluatedHalfReifiedConstraints=457
%%%mzn-stat: eliminatedLinearConstraints=1
%%%mzn-stat: method="minimize"
%%%mzn-stat: flatTime=0.195735
%%%mzn-stat-end

%%%mzn-stat: objective=83.8973727856
%%%mzn-stat: objectiveBound=-1
%%%mzn-stat: nodes=7388
%%%mzn-stat: openNodes=6576
%%%mzn-stat: solveTime=8.0607
%%%mzn-stat-end
%%%mzn-stat: objective=79.8973727856
%%%mzn-stat: objectiveBound=-1
%%%mzn-stat: nodes=8444
%%%mzn-stat: openNodes=6976
%%%mzn-stat: solveTime=8.6725
%%%mzn-stat-end
%%%mzn-stat: objective=76.8973727856
%%%mzn-stat: objectiveBound=-1
%%%mzn-stat: nodes=9059
%%%mzn-stat: openNodes=7831
%%%mzn-stat: solveTime=9.2345
%%%mzn-stat-end
%%%mzn-stat: objective=73.8973727856
%%%mzn-stat: objectiveBound=-1
%%%mzn-stat: nodes=9782
%%%mzn-stat: openNodes=7794
%%%mzn-stat: solveTime=13.5601
%%%mzn-stat-end
%%%mzn-stat: objective=69.8973727856
%%%mzn-stat: objectiveBound=-1
%%%mzn-stat: nodes=11593
%%%mzn-stat: openNodes=8555
%%%mzn-stat: solveTime=35.6520
%%%mzn-stat-end
%%%mzn-stat: objective=59.4274262182
%%%mzn-stat: objectiveBound=-1
%%%mzn-stat: nodes=12120
%%%mzn-stat: openNodes=8285
%%%mzn-stat: solveTime=36.3208
%%%mzn-stat-end
Differential Part: Round 0
[1, 1, 1, 1, 1, 0, 1, 1, 1, 1, 1, 1, 1, 1, 1, 0][0, 1, 0, 1, 0, 1, 1, 1, 0, 1, 1, 1, 1, 1, 1, 0]
Differential Part: Round 1
[0, 1, 0, 1, 0, 1, 0, 1, 0, 1, 1, 1, 0, 1, 1, 1][0, 0, 0, 0, 1, 0, 0, 0, 1, 0, 0, 0, 1, 1, 1, 0]
Differential Part: Round 2
[0, 0, 0, 1, 1, 0, 1, 0, 0, 0, 1, 0, 0, 1, 0, 0][0, 0, 1, 1, 1, 0, 0, 0, 0, 0, 0, 1, 1, 1, 0, 0]
Differential Part: Round 3
[0, 0, 0, 1, 0, 0, 0, 0, 0, 0, 0, 1, 0, 0, 0, 0][1, 1, 1, 1, 0, 0, 0, 0, 0, 1, 1, 0, 0, 0, 0, 0]
Differential-Linear Part: Round 0
[-1.0, -1.0, -1.0, 1.0, -1.0, -1.0, -1.0, -1.0, -1.0, -1.0, -1.0, 1.0, -1.0, -1.0, -1.0, -1.0][1.0, 1.0, 1.0, 1.0, -1.0, -1.0, -1.0, -1.0, -1.0, 1.0, 1.0, -1.0, -1.0, -1.0, -1.0, -1.0]
Differential-Linear Part: Round 1
[0.0, -0.5, 0.0, 0.96875, -0.9375, -0.875, -0.75, -0.5, 0.0, 0.0, -1.0, -1.0, -1.0, -1.0, -1.0, -1.0][0.0, 0.5, 0.0, 0.96875, -0.9375, -0.875, -0.75, 0.5, 0.0, 0.0, -1.0, -1.0, -1.0, -1.0, 1.0, 1.0]
Differential-Linear Part: Round 2
[6.97121728918529e-13, 0.1267592477292303, 0.0, 0.7764237474009439, -0.613731628523435, -0.3470078647882637, 0.07014785674094705, 1.135694156202076e-10, -1.148026835088332e-13, -1.395740362326679e-13, 0.7733954191208278, -0.6076812744141371, -0.3349609375000445, 0.09374999999996336, 0.0, 0.0][0.0, -0.1227980212376767, -1.496676942011416e-10, 0.6793707789757628, -0.4602987213929642, 0.1735039323939193, 0.0, 0.0, -1.148026835088332e-13, 0.0, 0.7733954191208278, -0.6076812744141371, 0.3349609375000445, -0.09374999999996336, 0.0, 0.0]
Differential-Linear Part: Round 3
[0.0, 0.01275552465935285, 0.0, 0.01845100170776266, -0.001904305734452012, 0.0, 0.0, 0.0, -4.008015207543977e-12, 0.0, -0.1849555828675735, -0.002888490133880525, 0.002490057125076447, 0.00041102259011088, 0.0, 0.0][0.0, -0.008665730723360391, 4.361804982715985e-12, -0.003201321352733232, 0.0, 0.0, 0.0, 0.0, 3.095998283816394e-12, 0.0, 0.06195289540254389, -0.0002707960109412498, 0.0, 0.0, 0.0, 0.0]
Linear Part: Round 0
[0, 0, 0, 0, 0, 0, 0, 0, 0, 0, 1, 0, 0, 0, 0, 0][0, 0, 0, 0, 0, 0, 0, 0, 0, 0, 0, 0, 0, 0, 0, 0]
Linear Part: Round 1
[0, 1, 1, 0, 0, 0, 0, 0, 0, 0, 0, 0, 0, 0, 0, 1][0, 0, 1, 0, 0, 0, 0, 0, 0, 0, 0, 0, 0, 0, 0, 1]
Linear Part: Round 2
[1, 0, 0, 0, 1, 1, 0, 1, 1, 0, 1, 1, 1, 1, 0, 0][1, 0, 0, 0, 1, 1, 1, 1, 0, 0, 1, 1, 0, 1, 0, 0]
Linear Part: Round 3
[0, 0, 0, 0, 0, 0, 0, 0, 0, 0, 0, 0, 0, 0, 0, 0][0, 1, 0, 1, 1, 0, 0, 1, 0, 1, 1, 0, 1, 1, 1, 1]
Linear Part: Round 4
[0, 1, 1, 0, 0, 1, 0, 1, 1, 0, 1, 1, 1, 1, 0, 1][0, 1, 1, 0, 0, 1, 0, 1, 1, 0, 1, 1, 1, 1, 0, 1]

Differential Probability: 23
Differential-Linear Probability: 0.1849555828675735
Linear Probability: 17
Total Number of Rounds:10
Total Probability:-59.43474924614862
----------
%%%mzn-stat: objective=47.8704145273
%%%mzn-stat: objectiveBound=-1
%%%mzn-stat: nodes=14050
%%%mzn-stat: openNodes=8500
%%%mzn-stat: solveTime=39.2195
%%%mzn-stat-end
Differential Part: Round 0
[0, 0, 1, 0, 1, 1, 0, 0, 0, 0, 1, 0, 0, 1, 1, 0][1, 0, 1, 1, 1, 1, 0, 1, 0, 1, 0, 1, 0, 1, 0, 1]
Differential Part: Round 1
[0, 1, 0, 0, 0, 0, 0, 0, 1, 1, 1, 1, 0, 1, 0, 1][1, 0, 1, 1, 0, 1, 0, 1, 1, 0, 1, 0, 0, 0, 1, 1]
Differential Part: Round 2
[0, 0, 1, 0, 0, 1, 0, 0, 0, 0, 1, 0, 0, 1, 1, 0][1, 1, 1, 1, 0, 0, 1, 0, 1, 0, 1, 0, 1, 0, 0, 0]
Differential Part: Round 3
[0, 0, 0, 0, 1, 0, 1, 0, 0, 0, 1, 0, 0, 0, 0, 0][1, 1, 0, 0, 0, 0, 0, 0, 1, 0, 0, 0, 0, 0, 1, 1]
Differential-Linear Part: Round 0
[-1.0, -1.0, -1.0, -1.0, 1.0, -1.0, 1.0, -1.0, -1.0, -1.0, 1.0, -1.0, -1.0, -1.0, -1.0, -1.0][1.0, 1.0, -1.0, -1.0, -1.0, -1.0, -1.0, -1.0, 1.0, -1.0, -1.0, -1.0, -1.0, -1.0, 1.0, 1.0]
Differential-Linear Part: Round 1
[-0.0078125, -0.984375, -0.96875, -0.9375, -0.875, -0.75, -0.5, 0.0, 0.75, -0.5, 0.0, 0.5, 0.0, 0.0, 0.0, 1.0][-0.0078125, -0.984375, -0.96875, -0.9375, -0.875, -0.75, 0.5, 0.0, 0.75, -0.5, 0.0, 0.5, -6.106226635438361e-16, 0.0, 0.0, -1.0]
Differential-Linear Part: Round 2
[-0.001112888736770092, 0.0, 0.1429215224278553, 0.0, 0.0, 0.0, -0.01210992965570768, 0.0, 0.3438467098167168, -0.1286362409591678, 0.0, 0.09655761718750859, -4.137522764912069e-16, -3.095319139889696e-13, 0.0, 0.75][-0.001078110963746027, 0.0, 0.1250563321243734, 0.0, 0.0, 0.0, 0.009082447241780757, 0.0, 0.0, 0.06431812047958391, -3.567243842375087e-17, 0.0, 0.0, -6.190638279779392e-13, 0.0, 0.73828125]
Differential-Linear Part: Round 3
[1.947010019210244e-06, 0.0, 3.594529464220192e-05, 0.0, 0.0, 0.0, 2.015274836452164e-05, 0.0, 0.0, -8.202426790350087e-07, 0.0, 0.0, 0.0, 0.0, 0.0, -0.2538555787318729][-2.434859495480967e-07, 0.0, 0.0, 0.0, 0.0, 0.0, 0.0, 0.0, 0.0, 0.0, 0.0, 0.0, 0.0, 0.0, 0.0, 0.0]
Linear Part: Round 0
[0, 0, 0, 0, 0, 0, 0, 0, 0, 0, 0, 0, 0, 0, 0, 1][0, 0, 0, 0, 0, 0, 0, 0, 0, 0, 0, 0, 0, 0, 0, 0]
Linear Part: Round 1
[0, 0, 0, 0, 1, 0, 1, 1, 0, 0, 0, 0, 0, 0, 0, 0][0, 0, 0, 0, 1, 0, 0, 0, 0, 0, 0, 0, 0, 0, 0, 0]
Linear Part: Round 2
[0, 0, 1, 0, 0, 0, 0, 0, 0, 1, 0, 0, 0, 0, 0, 0][0, 0, 1, 0, 0, 0, 0, 0, 0, 1, 0, 1, 0, 0, 0, 0]
Linear Part: Round 3
[0, 0, 0, 0, 0, 0, 0, 0, 1, 0, 0, 0, 0, 0, 1, 1][1, 0, 0, 0, 0, 0, 0, 0, 1, 1, 0, 0, 0, 0, 1, 1]
Linear Part: Round 4
[0, 0, 0, 1, 1, 1, 0, 1, 0, 0, 0, 0, 1, 0, 1, 1][0, 0, 0, 1, 1, 0, 1, 1, 0, 0, 0, 0, 1, 0, 1, 0]

Differential Probability: 32
Differential-Linear Probability: 0.2538555787318729
Linear Probability: 7
Total Number of Rounds:10
Total Probability:-47.97792012979571
----------
%%%mzn-stat: objective=46.8704145273
%%%mzn-stat: objectiveBound=-1
%%%mzn-stat: nodes=14388
%%%mzn-stat: openNodes=8191
%%%mzn-stat: solveTime=39.5326
%%%mzn-stat-end
Differential Part: Round 0
[0, 0, 1, 0, 1, 1, 0, 0, 0, 0, 1, 0, 0, 1, 1, 0][1, 0, 0, 1, 1, 1, 0, 1, 0, 1, 0, 1, 0, 1, 0, 1]
Differential Part: Round 1
[1, 1, 0, 0, 0, 0, 0, 0, 1, 1, 1, 1, 0, 1, 0, 1][1, 0, 1, 1, 0, 1, 0, 1, 1, 0, 1, 0, 0, 0, 1, 1]
Differential Part: Round 2
[0, 0, 1, 0, 0, 1, 0, 0, 0, 0, 1, 0, 0, 1, 1, 0][1, 1, 1, 1, 0, 0, 1, 0, 1, 0, 1, 0, 1, 0, 0, 0]
Differential Part: Round 3
[0, 0, 0, 0, 1, 0, 1, 0, 0, 0, 1, 0, 0, 0, 0, 0][1, 1, 0, 0, 0, 0, 0, 0, 1, 0, 0, 0, 0, 0, 1, 1]
Differential-Linear Part: Round 0
[-1.0, -1.0, -1.0, -1.0, 1.0, -1.0, 1.0, -1.0, -1.0, -1.0, 1.0, -1.0, -1.0, -1.0, -1.0, -1.0][1.0, 1.0, -1.0, -1.0, -1.0, -1.0, -1.0, -1.0, 1.0, -1.0, -1.0, -1.0, -1.0, -1.0, 1.0, 1.0]
Differential-Linear Part: Round 1
[-0.0078125, -0.984375, -0.96875, -0.9375, -0.875, -0.75, -0.5, 0.0, 0.75, -0.5, 0.0, 0.5, 0.0, 0.0, 0.0, 1.0][-0.0078125, -0.984375, -0.96875, -0.9375, -0.875, -0.75, 0.5, 0.0, 0.75, -0.5, 0.0, 0.5, -6.106226635438361e-16, 0.0, 0.0, -1.0]
Differential-Linear Part: Round 2
[-0.001112888736770092, 0.0, 0.1429215224278553, 0.0, 0.0, 0.0, -0.01210992965570768, 0.0, 0.3438467098167168, -0.1286362409591678, 0.0, 0.09655761718750859, -4.137522764912069e-16, -3.095319139889696e-13, 0.0, 0.75][-0.001078110963746027, 0.0, 0.1250563321243734, 0.0, 0.0, 0.0, 0.009082447241780757, 0.0, 0.0, 0.06431812047958391, -3.567243842375087e-17, 0.0, 0.0, -6.190638279779392e-13, 0.0, 0.73828125]
Differential-Linear Part: Round 3
[1.947010019210244e-06, 0.0, 3.594529464220192e-05, 0.0, 0.0, 0.0, 2.015274836452164e-05, 0.0, 0.0, -8.202426790350087e-07, 0.0, 0.0, 0.0, 0.0, 0.0, -0.2538555787318729][-2.434859495480967e-07, 0.0, 0.0, 0.0, 0.0, 0.0, 0.0, 0.0, 0.0, 0.0, 0.0, 0.0, 0.0, 0.0, 0.0, 0.0]
Linear Part: Round 0
[0, 0, 0, 0, 0, 0, 0, 0, 0, 0, 0, 0, 0, 0, 0, 1][0, 0, 0, 0, 0, 0, 0, 0, 0, 0, 0, 0, 0, 0, 0, 0]
Linear Part: Round 1
[0, 0, 0, 0, 1, 0, 1, 1, 0, 0, 0, 0, 0, 0, 0, 0][0, 0, 0, 0, 1, 0, 0, 0, 0, 0, 0, 0, 0, 0, 0, 0]
Linear Part: Round 2
[0, 0, 1, 0, 0, 0, 0, 0, 0, 1, 0, 0, 0, 0, 0, 0][0, 0, 1, 0, 0, 0, 0, 0, 0, 1, 0, 1, 0, 0, 0, 0]
Linear Part: Round 3
[0, 0, 0, 0, 0, 0, 0, 0, 1, 0, 0, 0, 0, 0, 1, 1][1, 0, 0, 0, 0, 0, 0, 0, 1, 1, 0, 0, 0, 0, 1, 1]
Linear Part: Round 4
[0, 0, 0, 1, 1, 1, 0, 1, 0, 0, 0, 0, 1, 0, 1, 1][0, 0, 0, 1, 1, 0, 1, 1, 0, 0, 0, 0, 1, 0, 1, 0]

Differential Probability: 31
Differential-Linear Probability: 0.2538555787318729
Linear Probability: 7
Total Number of Rounds:10
Total Probability:-46.97792012979571
----------
%%%mzn-stat: objective=17.7290135994
%%%mzn-stat: objectiveBound=-1
%%%mzn-stat: nodes=16159
%%%mzn-stat: openNodes=8614
%%%mzn-stat: solveTime=44.7401
%%%mzn-stat-end
Differential Part: Round 0
[0, 0, 0, 0, 1, 0, 1, 0, 0, 0, 0, 0, 0, 1, 0, 0][0, 0, 0, 0, 1, 0, 0, 0, 0, 0, 0, 0, 0, 1, 0, 0]
Differential Part: Round 1
[0, 0, 0, 0, 0, 0, 0, 0, 0, 0, 0, 1, 0, 0, 0, 0][0, 0, 1, 0, 0, 0, 0, 0, 0, 0, 0, 0, 0, 0, 0, 0]
Differential Part: Round 2
[0, 0, 0, 0, 0, 0, 0, 0, 0, 0, 0, 0, 0, 0, 0, 0][1, 0, 0, 0, 0, 0, 0, 0, 0, 0, 0, 0, 0, 0, 0, 0]
Differential Part: Round 3
[1, 0, 0, 0, 0, 0, 0, 0, 0, 0, 0, 0, 0, 0, 0, 0][1, 0, 0, 0, 0, 0, 0, 0, 0, 0, 0, 0, 0, 0, 1, 0]
Differential-Linear Part: Round 0
[1.0, -1.0, -1.0, -1.0, -1.0, -1.0, -1.0, -1.0, -1.0, -1.0, -1.0, -1.0, -1.0, -1.0, -1.0, -1.0][1.0, -1.0, -1.0, -1.0, -1.0, -1.0, -1.0, -1.0, -1.0, -1.0, -1.0, -1.0, -1.0, -1.0, 1.0, -1.0]
Differential-Linear Part: Round 1
[0.984375, -0.96875, -0.9375, -0.875, -0.75, -0.4999999999999999, 0.0, 0.984375, -0.96875, -0.9375, -0.875, -0.75, -0.5, -9.058170337937488e-18, 1.0, -1.0][0.984375, -0.96875, -0.9375, -0.875, -0.75, -0.4999999999999999, -1.084202172485504e-19, 0.984375, -0.96875, -0.9375, -0.875, -0.75, 0.5, -9.058170337937488e-18, -1.0, -1.0]
Differential-Linear Part: Round 2
[0.6782674345020772, -0.5028741604155739, -0.2830086590262925, -0.07152320480696636, -1.626255764587168e-13, 0.1157057757942666, -1.366244143395193e-14, -0.8225081118537827, -0.7057694644619723, -0.5300595651363085, -0.2872180428821991, -0.0002043843270057803, 0.0004844665526481379, -1.66717768063096e-15, 0.9689941406232568, -0.96875][0.6358757198456941, -0.4400148903636354, -0.2122564942697398, -0.03576160240351917, 2.908056841006738e-25, -0.1138978730474846, -1.840739777992715e-14, -0.771101354862887, -0.6175482814042713, -0.3975446738522467, 0.1436090214410627, 3.676441390996011e-21, 0.0004844665526481378, -1.66717768063096e-15, -0.9538536071760368, -0.9384765625000002]
Differential-Linear Part: Round 3
[0.06629743348105262, -0.00668251639354142, 4.145961705301694e-08, -6.774294616989995e-07, -4.884241315355909e-21, 0.0284697289799292, 0.0, 0.1748587739146142, -0.05139601478419195, 0.001876122001363097, 5.587860733166387e-05, 0.0, -1.139175223410099e-05, -1.733093008188303e-20, -0.6485490313737791, -0.6623481009257173][0.01407206080978398, -0.0002389774943168441, 3.523226046125412e-17, -7.715748777950425e-08, 0.0, 0.02195304658826899, 0.0, 0.06951417424610658, 0.00738093138901131, 0.0, -2.707123244796236e-08, 0.0, -1.086606344221825e-05, -1.626467869077088e-20, 0.412396582179799, -0.2914430270115092]
Linear Part: Round 0
[0, 0, 0, 0, 0, 0, 0, 0, 0, 0, 0, 0, 0, 0, 0, 0][0, 0, 0, 0, 0, 0, 0, 0, 0, 0, 0, 0, 0, 0, 0, 1]
Linear Part: Round 1
[0, 0, 0, 0, 0, 0, 0, 0, 0, 0, 0, 0, 0, 1, 0, 0][0, 0, 0, 0, 0, 0, 0, 0, 0, 0, 0, 0, 0, 1, 0, 0]
Linear Part: Round 2
[0, 0, 1, 1, 1, 0, 0, 0, 0, 0, 0, 1, 0, 0, 0, 0][0, 0, 1, 1, 0, 0, 0, 0, 0, 0, 0, 1, 0, 0, 0, 0]
Linear Part: Round 3
[0, 0, 1, 0, 0, 0, 0, 1, 1, 0, 0, 0, 0, 0, 0, 0][0, 0, 0, 0, 0, 0, 0, 1, 1, 1, 0, 0, 0, 0, 0, 0]
Linear Part: Round 4
[0, 0, 0, 0, 0, 1, 1, 0, 0, 1, 1, 0, 1, 0, 1, 1][0, 0, 0, 0, 0, 1, 1, 0, 0, 0, 0, 0, 1, 0, 0, 0]

Differential Probability: 4
Differential-Linear Probability: 0.2914430270115091
Linear Probability: 6
Total Number of Rounds:10
Total Probability:-17.77871421036856
----------
%%%mzn-stat: objective=15.4391657435
%%%mzn-stat: objectiveBound=5.64652014652
%%%mzn-stat: nodes=372315
%%%mzn-stat: openNodes=169149
%%%mzn-stat: solveTime=287.6670
%%%mzn-stat-end
Differential Part: Round 0
[0, 0, 1, 0, 1, 0, 1, 0, 0, 0, 0, 1, 0, 0, 0, 0][0, 0, 0, 0, 0, 0, 0, 0, 0, 0, 0, 0, 0, 1, 0, 0]
Differential Part: Round 1
[0, 0, 1, 0, 0, 0, 0, 0, 0, 1, 0, 1, 0, 0, 0, 0][0, 0, 1, 0, 0, 0, 0, 0, 0, 1, 0, 0, 0, 0, 0, 0]
Differential Part: Round 2
[1, 0, 0, 0, 0, 0, 0, 0, 0, 0, 0, 0, 0, 0, 0, 0][0, 0, 0, 0, 0, 0, 0, 1, 0, 0, 0, 0, 0, 0, 0, 0]
Differential Part: Round 3
[0, 0, 0, 0, 0, 0, 0, 0, 0, 0, 0, 0, 0, 0, 0, 0][0, 0, 0, 0, 0, 1, 0, 0, 0, 0, 0, 0, 0, 0, 0, 0]
Differential-Linear Part: Round 0
[-1.0, -1.0, -1.0, -1.0, -1.0, -1.0, -1.0, -1.0, -1.0, -1.0, -1.0, -1.0, -1.0, -1.0, -1.0, -1.0][-1.0, -1.0, -1.0, -1.0, -1.0, 1.0, -1.0, -1.0, -1.0, -1.0, -1.0, -1.0, -1.0, -1.0, -1.0, -1.0]
Differential-Linear Part: Round 1
[-0.9375, -0.875, -0.75, -0.5, 0.0, 1.0, -1.0, -1.0, -1.0, -1.0, -1.0, -1.0, -1.0, -1.0, -1.0, -1.0][-0.9375, -0.8749999998835847, -0.75, 0.5, 9.313225746154785e-10, 1.0, -1.0, -1.0, -1.0, -1.0, -1.0, -1.0, -1.0, -1.0, -1.0, -1.0]
Differential-Linear Part: Round 2
[-0.6617546081065598, -0.4426269530529606, -0.1171874999749507, 0.124999999883071, 1.14411653162568e-12, 0.9286618232745336, -0.8573236465454284, -0.7218360900878927, -0.5622558593750041, -0.3515625000000081, -0.1250000000000143, -1.147996628314552e-13, 0.9999999999999982, -1.0, -1.0, -1.0][-0.4963159560799199, 0.2213134765264731, 0.0, -0.1249999998828716, 1.144127624485346e-12, 0.9286618232745336, -0.8573236465453137, -0.7218360900878927, -0.5622558593750041, -0.3515625000000081, -0.125000000000043, 0.0, 1.0, -1.0, -0.9375, -0.875]
Differential-Linear Part: Round 3
[0.005923693355690946, -0.001123370469330994, 8.069114491294099e-12, 0.03218309631237843, 4.416129684159387e-10, 0.6261294710396352, -0.3875456609019962, -0.1372490654227257, -0.02877908176595392, 0.0002450557014697965, -0.0003776592677160888, 0.0, -0.742452413280979, -0.618818691803405, -0.4955680640251149, -0.4919738769531286][-5.531582623856904e-13, -0.0001404212764242388, 0.0, -0.02988721285887364, 0.0, 0.4519628492649959, -0.2178998186164413, -0.04825162456121155, -0.003597385218291891, -1.340866223006796e-12, 0.0003776592677160888, 0.0, -0.6960491374509178, -0.5414663553279794, -0.2459583374992239, 0.1088804490685885]
Linear Part: Round 0
[0, 0, 0, 0, 0, 0, 0, 0, 0, 0, 0, 0, 0, 0, 0, 0][0, 0, 0, 0, 0, 0, 0, 0, 0, 0, 0, 0, 1, 0, 0, 0]
Linear Part: Round 1
[0, 0, 0, 0, 0, 0, 0, 0, 0, 0, 1, 0, 0, 0, 0, 0][0, 0, 0, 0, 0, 0, 0, 0, 0, 0, 1, 0, 0, 0, 0, 0]
Linear Part: Round 2
[0, 0, 0, 0, 0, 0, 0, 0, 1, 0, 0, 0, 0, 0, 0, 1][0, 1, 0, 0, 0, 0, 0, 0, 1, 0, 0, 0, 0, 0, 0, 1]
Linear Part: Round 3
[0, 0, 0, 0, 1, 1, 0, 0, 0, 0, 0, 0, 0, 0, 0, 0][0, 0, 0, 0, 1, 1, 1, 0, 0, 0, 0, 0, 0, 0, 0, 1]
Linear Part: Round 4
[0, 0, 1, 1, 1, 0, 0, 0, 0, 1, 0, 1, 0, 1, 0, 0][0, 0, 1, 1, 1, 0, 0, 0, 0, 1, 0, 0, 0, 1, 0, 0]

Differential Probability: 7
Differential-Linear Probability: 0.6960491374509178
Linear Probability: 4
Total Number of Rounds:10
Total Probability:-15.52273893844776
----------
%%%mzn-stat: objective=14.0421332964
%%%mzn-stat: objectiveBound=13.8986668086
%%%mzn-stat: nodes=152201688
%%%mzn-stat: openNodes=537013
%%%mzn-stat: solveTime=52477.6199
%%%mzn-stat-end
Differential Part: Round 0
[0, 0, 1, 0, 0, 0, 0, 0, 0, 1, 0, 1, 0, 0, 0, 0][0, 0, 1, 0, 0, 0, 0, 0, 0, 1, 0, 0, 0, 0, 0, 0]
Differential Part: Round 1
[1, 0, 0, 0, 0, 0, 0, 0, 0, 0, 0, 0, 0, 0, 0, 0][0, 0, 0, 0, 0, 0, 0, 1, 0, 0, 0, 0, 0, 0, 0, 0]
Differential Part: Round 2
[0, 0, 0, 0, 0, 0, 0, 0, 0, 0, 0, 0, 0, 0, 0, 0][0, 0, 0, 0, 0, 1, 0, 0, 0, 0, 0, 0, 0, 0, 0, 0]
Differential Part: Round 3
[0, 0, 0, 0, 0, 1, 0, 0, 0, 0, 0, 0, 0, 0, 0, 0][0, 0, 0, 1, 0, 1, 0, 0, 0, 0, 0, 0, 0, 0, 0, 0]
Differential-Linear Part: Round 0
[-1.0, -1.0, -1.0, -1.0, -1.0, 1.0, -1.0, -1.0, -1.0, -1.0, -1.0, -1.0, -1.0, -1.0, -1.0, -1.0][-1.0, -1.0, -1.0, 1.0, -1.0, 1.0, -1.0, -1.0, -1.0, -1.0, -1.0, -1.0, -1.0, -1.0, -1.0, -1.0]
Differential-Linear Part: Round 1
[-0.75, -0.5, 0.0, 0.5, 0.0, 0.984375, -0.96875, -0.9375, -0.875, -0.75, -0.5, 0.0, 1.0, -1.0, -1.0, -1.0][-0.75, 0.5, 0.0, -0.5, 0.0, 0.984375, -0.96875, -0.9375, -0.875, -0.75, -0.5, 0.0, 1.0, -1.0, -1.0, -1.0]
Differential-Linear Part: Round 2
[0.00246617542164343, -0.005845749147599242, 0.0, 0.1258720545527556, 0.0, 0.7736869792552926, -0.5782340936039468, -0.2890103222098626, -0.08191449024161709, 0.0, -0.001423357054572518, 0.0, -0.9391862154014495, -0.9091491699236371, -0.87890625, -0.875][0.0, -0.002922874573799621, 0.0, -0.1239053037003688, 0.0, 0.7253315430518368, -0.5059548319034535, -0.2167577416573969, -0.04095724512080855, 0.0, 0.00142335705455533, 0.0, -0.9391862154014495, -0.9091491699236371, -0.6591796875, 0.4375]
Differential-Linear Part: Round 3
[0.0, -3.475609318485143e-07, -7.048498467423754e-10, -0.02852997690572594, 0.0, 0.2329818046132194, -0.02482357992027797, 5.34617549101361e-06, 1.627428585895712e-06, 0.0, -3.321042549827251e-06, -1.753073172978811e-11, 0.3484463982477861, -0.1484210701818965, -0.02898495606600055, 0.03583758937854882][0.0, -4.306379330098164e-08, -1.247188529314536e-11, 0.02069369216534189, 0.0, 0.05050060952722706, -0.001016705203785862, 0.0, -2.316223921774893e-09, 0.0, -3.119076064922542e-06, 0.0, 0.2296887879186553, 0.06493421817873544, 0.0, 0.0001047487650833875]
Linear Part: Round 0
[0, 0, 0, 0, 0, 0, 0, 0, 0, 0, 0, 0, 0, 0, 0, 0][0, 0, 0, 0, 0, 0, 0, 0, 0, 0, 0, 0, 1, 0, 0, 0]
Linear Part: Round 1
[0, 0, 0, 0, 0, 0, 0, 0, 0, 0, 1, 0, 0, 0, 0, 0][0, 0, 0, 0, 0, 0, 0, 0, 0, 0, 1, 0, 0, 0, 0, 0]
Linear Part: Round 2
[0, 0, 0, 0, 0, 0, 0, 0, 1, 0, 0, 0, 0, 0, 0, 1][0, 1, 0, 0, 0, 0, 0, 0, 1, 0, 0, 0, 0, 0, 0, 1]
Linear Part: Round 3
[0, 0, 0, 0, 1, 1, 0, 0, 0, 0, 0, 0, 0, 0, 0, 0][0, 0, 0, 0, 1, 1, 1, 0, 0, 0, 0, 0, 0, 0, 0, 1]
Linear Part: Round 4
[0, 0, 1, 1, 1, 0, 0, 0, 0, 1, 0, 1, 0, 1, 0, 0][0, 0, 1, 1, 1, 0, 0, 0, 0, 1, 0, 0, 0, 1, 0, 0]

Differential Probability: 4
Differential-Linear Probability: 0.2296887879186553
Linear Probability: 4
Total Number of Rounds:10
Total Probability:-14.12224766050042
----------
%%%mzn-stat: objective=14.0421332948
%%%mzn-stat: objectiveBound=13.8986668086
%%%mzn-stat: nodes=152250719
%%%mzn-stat: openNodes=89116
%%%mzn-stat: solveTime=52486.0103
%%%mzn-stat-end
Differential Part: Round 0
[0, 0, 1, 0, 0, 0, 0, 0, 0, 1, 0, 1, 0, 0, 0, 0][0, 0, 1, 0, 0, 0, 0, 0, 0, 1, 0, 0, 0, 0, 0, 0]
Differential Part: Round 1
[1, 0, 0, 0, 0, 0, 0, 0, 0, 0, 0, 0, 0, 0, 0, 0][0, 0, 0, 0, 0, 0, 0, 1, 0, 0, 0, 0, 0, 0, 0, 0]
Differential Part: Round 2
[0, 0, 0, 0, 0, 0, 0, 0, 0, 0, 0, 0, 0, 0, 0, 0][0, 0, 0, 0, 0, 1, 0, 0, 0, 0, 0, 0, 0, 0, 0, 0]
Differential Part: Round 3
[0, 0, 0, 0, 0, 1, 0, 0, 0, 0, 0, 0, 0, 0, 0, 0][0, 0, 0, 1, 0, 1, 0, 0, 0, 0, 0, 0, 0, 0, 0, 0]
Differential-Linear Part: Round 0
[-1.0, -1.0, -1.0, -1.0, -1.0, 1.0, -1.0, -1.0, -1.0, -1.0, -1.0, -1.0, -1.0, -1.0, -1.0, -1.0][-1.0, -1.0, -1.0, 1.0, -1.0, 1.0, -1.0, -1.0, -1.0, -1.0, -1.0, -1.0, -1.0, -1.0, -1.0, -1.0]
Differential-Linear Part: Round 1
[-0.75, -0.5000000000000001, 0.0, 0.4999999998835847, 4.656612873077393e-10, 0.984375, -0.96875, -0.9375, -0.875, -0.75, -0.5, 0.0, 1.0, -1.0, -1.0, -1.0][-0.75, 0.5000000000000001, 0.0, -0.4999999998835847, 4.656612873077393e-10, 0.984375, -0.96875, -0.9375, -0.875, -0.75, -0.5, 0.0, 1.0, -1.0, -1.0, -1.0]
Differential-Linear Part: Round 2
[0.002466175422613445, -0.005845749149879609, -2.480307785798302e-23, 0.125872054462747, 1.488861485990061e-11, 0.7736869792382125, -0.5782340935332133, -0.2890103222115247, -0.08191449024510361, 0.0, -0.001423357084347477, 0.0, -0.9391862154013551, -0.9091491699218858, -0.8789062500000001, -0.875][0.0, -0.002922874574259278, 0.0, -0.123905303611764, 1.442334564552872e-11, 0.7253315430357696, -0.5059548318415616, -0.2167577416579585, -0.04095724513184465, 0.0, 0.001423357084347477, 0.0, -0.9391862154013551, -0.9091491699218858, -0.6591796875000001, 0.4375000000000001]
Differential-Linear Part: Round 3
[1.747167560025566e-12, -3.475559752907255e-07, -1.302502948360436e-12, -0.02852997688420431, 1.459971902303055e-12, 0.2329818039766088, -0.024823579722431, 5.346156898158785e-06, 1.627359176159492e-06, 0.0, -3.320135119684352e-06, -4.686928975696959e-13, 0.3484463985430927, -0.1484210706003134, -0.02898495652076275, 0.03583758948223284][0.0, -4.306397615456627e-08, 0.0, 0.02069369214662883, 2.483608344037503e-13, 0.05050060957910549, -0.001016705375193674, 0.0, -2.316311088261735e-09, 0.0, -3.118218976150282e-06, -4.130232211645745e-13, 0.229688788102376, 0.06493421838763712, 2.472868860235485e-12, 0.0001047487783799946]
Linear Part: Round 0
[0, 0, 0, 0, 0, 0, 0, 0, 0, 0, 0, 0, 0, 0, 0, 0][0, 0, 0, 0, 0, 0, 0, 0, 0, 0, 0, 0, 1, 0, 0, 0]
Linear Part: Round 1
[0, 0, 0, 0, 0, 0, 0, 0, 0, 0, 1, 0, 0, 0, 0, 0][0, 0, 0, 0, 0, 0, 0, 0, 0, 0, 1, 0, 0, 0, 0, 0]
Linear Part: Round 2
[0, 0, 0, 0, 0, 0, 0, 0, 1, 0, 0, 0, 0, 0, 0, 1][0, 1, 0, 0, 0, 0, 0, 0, 1, 0, 0, 0, 0, 0, 0, 1]
Linear Part: Round 3
[0, 0, 0, 0, 1, 1, 0, 0, 0, 0, 0, 0, 0, 0, 0, 0][0, 0, 0, 0, 1, 1, 1, 0, 0, 0, 0, 0, 0, 0, 0, 1]
Linear Part: Round 4
[0, 0, 1, 1, 1, 0, 0, 0, 0, 1, 0, 1, 0, 1, 0, 0][0, 0, 1, 1, 1, 0, 0, 0, 0, 1, 0, 0, 0, 1, 0, 0]

Differential Probability: 4
Differential-Linear Probability: 0.229688788102376
Linear Probability: 4
Total Number of Rounds:10
Total Probability:-14.12224765934646
----------
==========
%%%mzn-stat: objective=14.0421332948
%%%mzn-stat: objectiveBound=14.0421332948
%%%mzn-stat: nodes=158704128
%%%mzn-stat: solveTime=53389.2220
%%%mzn-stat-end
%%%mzn-stat: nSolutions=7
%%%mzn-stat-end
